(declare-fun temp84389_1 () (_ BitVec 64))
(declare-fun temp84389_2 () (_ BitVec 64))
(declare-fun var77740 () (_ BitVec 64))
(declare-fun k!0 () Bool)
(declare-fun ARGNAME_filter_NAMEEND_DIM () (_ BitVec 64))
(declare-fun ARGNAME_data_format_NAMEEND_STRFMT () (_ BitVec 64))
(declare-fun temp84389_3 () (_ BitVec 64))
(declare-fun ARGNAME_out_backprop_NAMEEND_DIM () (_ BitVec 64))
(declare-fun var77770 () (_ BitVec 64))
(declare-fun temp84389_4 () (_ BitVec 64))
(declare-fun temp84389_5 () (_ BitVec 64))
(declare-fun ARGNAME_filter_NAMEEND_DIMSIZE
             ()
             (Array (_ BitVec 64) (_ BitVec 64)))
(declare-fun temp84389_6 () (_ BitVec 64))
(declare-fun temp84389_7 () (_ BitVec 64))
(declare-fun temp84389_8 () (_ BitVec 64))
(declare-fun temp84389_9 () (_ BitVec 64))
(declare-fun temp84389_10 () (_ BitVec 64))
(declare-fun temp84389_11 () (_ BitVec 64))
(declare-fun temp84389_12 () (_ BitVec 64))
(declare-fun temp84389_13 () (_ BitVec 64))
(declare-fun temp84389_14 () (_ BitVec 64))
(declare-fun temp84389_15 () (_ BitVec 64))
(declare-fun temp84389_16 () (_ BitVec 64))
(declare-fun temp84389_17 () (_ BitVec 64))
(declare-fun temp84389_18 () (_ BitVec 64))
(declare-fun var77799 () (_ BitVec 64))
(declare-fun temp84389_19 () (_ BitVec 64))
(declare-fun ARGNAME_out_backprop_NAMEEND_DIMSIZE
             ()
             (Array (_ BitVec 64) (_ BitVec 64)))
(declare-fun temp84389_20 () (_ BitVec 64))
(declare-fun temp84389_21 () (_ BitVec 64))
(declare-fun temp84389_22 () (_ BitVec 64))
(declare-fun temp84389_23 () (_ BitVec 64))
(declare-fun temp84389_24 () (_ BitVec 64))
(declare-fun temp84389_25 () (_ BitVec 64))
(declare-fun temp84389_26 () (_ BitVec 64))
(declare-fun temp84389_27 () (_ BitVec 64))
(declare-fun temp84389_28 () (_ BitVec 64))
(declare-fun temp84389_29 () (_ BitVec 64))
(declare-fun temp84389_30 () (_ BitVec 64))
(declare-fun temp84389_31 () (_ BitVec 64))
(declare-fun temp84389_32 () (_ BitVec 64))
(declare-fun var77832 () (_ BitVec 64))
(declare-fun temp84389_33 () (_ BitVec 64))
(declare-fun temp84389_34 () (_ BitVec 64))
(declare-fun var77833 () (_ BitVec 64))
(declare-fun var77834 () (_ BitVec 64))
(declare-fun temp84389_35 () (_ BitVec 64))
(declare-fun temp84389_36 () (_ BitVec 64))
(declare-fun var275510 () (_ BitVec 64))
(declare-fun temp84389_37 () (_ BitVec 64))
(declare-fun var275528 () (_ BitVec 64))
(declare-fun temp84389_38 () (_ BitVec 64))
(declare-fun temp84389_40 () (_ BitVec 64))
(declare-fun temp84389_39 () (_ BitVec 64))
(declare-fun temp84389_41 () (_ BitVec 64))
(declare-fun var472118 () (_ BitVec 64))
(declare-fun temp84389_42 () (_ BitVec 64))
(declare-fun var472136 () (_ BitVec 64))
(declare-fun temp84389_43 () (_ BitVec 64))
(declare-fun temp84389_45 () (_ BitVec 64))
(declare-fun temp84389_44 () (_ BitVec 64))
(declare-fun temp84389_47 () (_ BitVec 64))
(declare-fun temp84389_46 () (_ BitVec 64))
(declare-fun temp84389_48 () (_ BitVec 64))
(declare-fun var603190 () (_ BitVec 64))
(declare-fun temp84389_49 () (_ BitVec 64))
(declare-fun var603208 () (_ BitVec 64))
(declare-fun temp84389_50 () (_ BitVec 64))
(declare-fun temp84389_52 () (_ BitVec 64))
(declare-fun temp84389_51 () (_ BitVec 64))
(declare-fun temp84389_54 () (_ BitVec 64))
(declare-fun temp84389_53 () (_ BitVec 64))
(declare-fun temp84389_56 () (_ BitVec 64))
(declare-fun temp84389_55 () (_ BitVec 64))
(declare-fun temp84389_57 () (_ BitVec 64))
(declare-fun var795723 () (_ BitVec 64))
(declare-fun var795702 () (_ BitVec 64))
(declare-fun var730134 () (_ BitVec 64))
(declare-fun temp84389_58 () (_ BitVec 64))
(declare-fun temp84389_59 () (_ BitVec 64))
(declare-fun var861259 () (_ BitVec 64))
(declare-fun var861238 () (_ BitVec 64))
(declare-fun var730144 () (_ BitVec 64))
(declare-fun temp84389_60 () (_ BitVec 64))
(declare-fun temp84389_62 () (_ BitVec 64))
(declare-fun temp84389_61 () (_ BitVec 64))
(declare-fun temp84389_64 () (_ BitVec 64))
(declare-fun temp84389_63 () (_ BitVec 64))
(declare-fun temp84389_66 () (_ BitVec 64))
(declare-fun temp84389_65 () (_ BitVec 64))
(declare-fun temp84389_67 () (_ BitVec 64))
(declare-fun var1057842 () (_ BitVec 64))
(declare-fun temp84389_68 () (_ BitVec 64))
(declare-fun var1057843 () (_ BitVec 64))
(declare-fun var1057844 () (_ BitVec 64))
(declare-fun var1057840 () (_ BitVec 64))
(declare-fun var664540 () (_ BitVec 64))
(declare-fun temp84389_69 () (_ BitVec 64))
(declare-fun var1123378 () (_ BitVec 64))
(declare-fun temp84389_70 () (_ BitVec 64))
(declare-fun var1123379 () (_ BitVec 64))
(declare-fun var1123380 () (_ BitVec 64))
(declare-fun var1123376 () (_ BitVec 64))
(declare-fun var664547 () (_ BitVec 64))
(declare-fun temp84389_71 () (_ BitVec 64))
(declare-fun var1188914 () (_ BitVec 64))
(declare-fun temp84389_72 () (_ BitVec 64))
(declare-fun var1188915 () (_ BitVec 64))
(declare-fun var1188916 () (_ BitVec 64))
(declare-fun var1188912 () (_ BitVec 64))
(declare-fun var664552 () (_ BitVec 64))
(declare-fun var78095 () (_ BitVec 64))
(declare-fun temp84389_73 () (_ BitVec 64))
(declare-fun temp84389_74 () (_ BitVec 64))
(declare-fun var78096 () (_ BitVec 64))
(declare-fun var78179 () (_ BitVec 64))
(assert (or (= ARGNAME_data_format_NAMEEND_STRFMT #x0000000000000000)
    (= ARGNAME_data_format_NAMEEND_STRFMT #x0000000000000001)
    (= ARGNAME_data_format_NAMEEND_STRFMT #x0000000000000002)
    (= ARGNAME_data_format_NAMEEND_STRFMT #x0000000000000003)
    (= ARGNAME_data_format_NAMEEND_STRFMT #x0000000000000004)
    (= ARGNAME_data_format_NAMEEND_STRFMT #x0000000000000005)))
(assert (= temp84389_1 #x0000000000000005))
(assert (= var77740
   (ite (= ARGNAME_filter_NAMEEND_DIM temp84389_1)
        #x0000000000000001
        #x0000000000000000)))
(assert (= temp84389_2 #x0000000000000001))
(assert (= var77740 temp84389_2))
(assert (= temp84389_3 #x0000000000000005))
(assert (= var77770
   (ite (= ARGNAME_out_backprop_NAMEEND_DIM temp84389_3)
        #x0000000000000001
        #x0000000000000000)))
(assert (= temp84389_4 #x0000000000000001))
(assert (= var77770 temp84389_4))
(assert (= temp84389_5 #x0000000000000000))
(assert (= temp84389_6 (select ARGNAME_filter_NAMEEND_DIMSIZE temp84389_5)))
(assert (= temp84389_7 #x0000000000000001))
(assert (= temp84389_8 (select ARGNAME_filter_NAMEEND_DIMSIZE temp84389_7)))
(assert (= temp84389_9 #x0000000000000002))
(assert (= temp84389_10 (select ARGNAME_filter_NAMEEND_DIMSIZE temp84389_9)))
(assert (= temp84389_11 #x0000000000000003))
(assert (= temp84389_12 (select ARGNAME_filter_NAMEEND_DIMSIZE temp84389_11)))
(assert (= temp84389_13 #x0000000000000004))
(assert (= temp84389_14 (select ARGNAME_filter_NAMEEND_DIMSIZE temp84389_13)))
(assert (= temp84389_15 #x0000000000000005))
(assert (= temp84389_16 (select ARGNAME_filter_NAMEEND_DIMSIZE temp84389_15)))
(assert (= temp84389_17 #x0000000000000003))
(assert (= temp84389_18 (select ARGNAME_filter_NAMEEND_DIMSIZE temp84389_17)))
(assert (= var77799 temp84389_18))
(assert (= temp84389_19 #x0000000000000000))
(assert (= temp84389_20 (select ARGNAME_out_backprop_NAMEEND_DIMSIZE temp84389_19)))
(assert (= temp84389_21 #x0000000000000001))
(assert (= temp84389_22 (select ARGNAME_out_backprop_NAMEEND_DIMSIZE temp84389_21)))
(assert (= temp84389_23 #x0000000000000002))
(assert (= temp84389_24 (select ARGNAME_out_backprop_NAMEEND_DIMSIZE temp84389_23)))
(assert (= temp84389_25 #x0000000000000003))
(assert (= temp84389_26 (select ARGNAME_out_backprop_NAMEEND_DIMSIZE temp84389_25)))
(assert (= temp84389_27 #x0000000000000004))
(assert (= temp84389_28 (select ARGNAME_out_backprop_NAMEEND_DIMSIZE temp84389_27)))
(assert (= temp84389_29 #x0000000000000005))
(assert (= temp84389_30 (select ARGNAME_out_backprop_NAMEEND_DIMSIZE temp84389_29)))
(assert (= temp84389_31 #x0000000000000004))
(assert (= temp84389_32 (select ARGNAME_out_backprop_NAMEEND_DIMSIZE temp84389_31)))
(assert (= var77832 temp84389_32))
(assert (= temp84389_33 #x0000000000000004))
(assert (= temp84389_34 (select ARGNAME_filter_NAMEEND_DIMSIZE temp84389_33)))
(assert (= var77833 temp84389_34))
(assert (= var77834 (ite (= var77832 var77833) #x0000000000000001 #x0000000000000000)))
(assert (= temp84389_35 #x0000000000000001))
(assert (= var77834 temp84389_35))
(assert (= temp84389_36 #x0000000000000001))
(assert (= var275510 temp84389_36))
(assert (= temp84389_37 #x0000000000000001))
(assert (= var275528
   (ite (bvslt var275510 temp84389_37) #x0000000000000001 #x0000000000000000)))
(assert (= temp84389_38 #x0000000000000000))
(assert (= var275528 temp84389_38))
(assert (= temp84389_40 #x0000000000000000))
(assert (= temp84389_39 temp84389_40))
(assert (= temp84389_41 #x0000000000000001))
(assert (= var472118 temp84389_41))
(assert (= temp84389_42 #x0000000000000001))
(assert (= var472136
   (ite (bvslt var472118 temp84389_42) #x0000000000000001 #x0000000000000000)))
(assert (= temp84389_43 #x0000000000000000))
(assert (= var472136 temp84389_43))
(assert (= temp84389_45 #x0000000000000000))
(assert (= temp84389_44 temp84389_45))
(assert (= temp84389_47 #x0000000000000000))
(assert (= temp84389_46 temp84389_47))
(assert (= temp84389_48 #x0000000000000001))
(assert (= var603190 temp84389_48))
(assert (= temp84389_49 #x0000000000000001))
(assert (= var603208
   (ite (bvslt var603190 temp84389_49) #x0000000000000001 #x0000000000000000)))
(assert (= temp84389_50 #x0000000000000000))
(assert (= var603208 temp84389_50))
(assert (= temp84389_52 #x00000000000000ff))
(assert (= temp84389_51 temp84389_52))
(assert (= temp84389_54 #x00000000000000ff))
(assert (= temp84389_53 temp84389_54))
(assert (= temp84389_56 #x00000000000000ff))
(assert (= temp84389_55 temp84389_56))
(assert (= temp84389_57 #x0000000000000000))
(assert (= var795723 temp84389_57))
(assert (= var795702 var795723))
(assert (= var730134 var795702))
(assert (= temp84389_58 #x0000000000000000))
(assert (= var730134 temp84389_58))
(assert (= temp84389_59 #x0000000000000000))
(assert (= var861259 temp84389_59))
(assert (= var861238 var861259))
(assert (= var730144 var861238))
(assert (= temp84389_60 #x0000000000000000))
(assert (= var730144 temp84389_60))
(assert (= temp84389_62 #x0000000000000000))
(assert (= temp84389_61 temp84389_62))
(assert (= temp84389_64 #x0000000000000000))
(assert (= temp84389_63 temp84389_64))
(assert (= temp84389_66 #x0000000000000000))
(assert (= temp84389_65 temp84389_66))
(assert (= temp84389_67 #x0000000000008000))
(assert (= var1057842 temp84389_67))
(assert (= temp84389_68 #x0000000000000001))
(assert (= var1057843
   (ite (bvslt temp84389_65 temp84389_68) #x0000000000000001 #x0000000000000000)))
(assert (= var1057844 (ite (= var1057843 #x0000000000000001) var1057842 temp84389_65)))
(assert (= var1057840 var1057844))
(assert (= var664540 var1057840))
(assert (= temp84389_69 #x0000000000040000))
(assert (= var1123378 temp84389_69))
(assert (= temp84389_70 #x0000000000000001))
(assert (= var1123379
   (ite (bvslt temp84389_63 temp84389_70) #x0000000000000001 #x0000000000000000)))
(assert (= var1123380 (ite (= var1123379 #x0000000000000001) var1123378 temp84389_63)))
(assert (= var1123376 var1123380))
(assert (= var664547 var1123376))
(assert (= temp84389_71 #x0000000000200000))
(assert (= var1188914 temp84389_71))
(assert (= temp84389_72 #x0000000000000001))
(assert (= var1188915
   (ite (bvslt temp84389_61 temp84389_72) #x0000000000000001 #x0000000000000000)))
(assert (= var1188916 (ite (= var1188915 #x0000000000000001) var1188914 temp84389_61)))
(assert (= var1188912 var1188916))
(assert (= var664552 var1188912))
(assert (= var78095 var664552))
(assert (= temp84389_73 #x0000000000000003))
(assert (= temp84389_74 #xffffffffffffffff))
(assert (= var78179 (bvadd var78096 temp84389_74)))
(model-add temp84389_1 () (_ BitVec 64) #x0000000000000005)
(model-add temp84389_2 () (_ BitVec 64) #x0000000000000001)
(model-add var77740 () (_ BitVec 64) #x0000000000000001)
(model-del k!0)
(model-add ARGNAME_filter_NAMEEND_DIM
           ()
           (_ BitVec 64)
           (ite k!0 #x0000000000000005 (bvnot #x0000000000000005)))


